NAME: sim-grid-A-20
TYPE: TSP
COMMENT: Semi-regular Grid
DIMENSION: 20
EDGE_WEIGHT_TYPE: EUC_2D
NODE_COORD_SECTION
1 450 50
2 50 100
3 1550 100
4 400 300
5 750 300
6 1250 300
7 550 350
8 750 350
9 500 550
10 100 600
11 900 600
12 1500 600
13 100 800
14 250 800
15 400 800
16 550 800
17 250 850
18 850 850
19 1300 850
20 1450 850
EOF
